c description: Random 3-CNF over 25 variables and 107 clauses
c generator: CNFgen (0.9.2)
c copyright: (C) 2012-2022 Massimo Lauria <massimo.lauria@uniroma1.it>
c url: https://massimolauria.net/cnfgen
c command line: cnfgen --output CNF_4.28/25_bit_107_729.cnf randkcnf 3 25 107
c
p cnf 25 107
5 -13 24 0
-2 16 -19 0
-2 10 -22 0
-6 -16 -24 0
-5 -11 -15 0
-7 22 24 0
-4 -11 16 0
-5 8 -22 0
-7 -14 -24 0
-7 -9 10 0
-4 19 22 0
14 15 -24 0
5 20 -24 0
-5 -15 21 0
-4 13 -24 0
4 19 21 0
4 11 19 0
5 -12 21 0
6 -20 -23 0
12 15 -22 0
-6 12 14 0
-5 10 11 0
-1 -9 23 0
3 -10 -25 0
16 -23 24 0
-8 -11 19 0
9 -16 -25 0
-4 -6 22 0
3 -17 -21 0
-9 11 12 0
7 12 -24 0
8 14 -25 0
4 -14 -18 0
7 10 -14 0
-15 -20 -21 0
8 -20 22 0
-2 -6 9 0
-6 -14 -23 0
-1 14 -15 0
9 14 -22 0
1 2 -11 0
10 11 -16 0
-13 14 -20 0
-1 -9 15 0
3 7 -16 0
-17 24 25 0
-5 -12 -22 0
19 21 -25 0
7 12 -17 0
-11 -14 -15 0
5 -14 17 0
9 -16 23 0
-5 -7 -16 0
-5 -16 -19 0
-1 14 20 0
-7 8 -20 0
10 22 -25 0
-1 -14 -23 0
-2 -18 24 0
-2 -5 15 0
-1 9 22 0
10 -12 -14 0
-1 -6 -23 0
3 8 -19 0
2 -10 -12 0
-3 14 -19 0
10 17 -23 0
5 17 18 0
1 13 -17 0
-19 23 24 0
9 16 21 0
-2 -16 -20 0
1 12 -18 0
-2 -5 -18 0
11 -13 -19 0
-9 14 -19 0
-3 14 -18 0
12 -13 -17 0
-7 9 -25 0
-12 -13 -17 0
-16 -22 -23 0
-4 11 21 0
-11 19 23 0
-3 -8 21 0
13 -15 -20 0
14 20 21 0
3 -9 -12 0
12 13 -14 0
4 -8 21 0
5 11 25 0
8 -9 -11 0
-3 -4 10 0
-11 17 22 0
6 10 18 0
-6 8 -17 0
3 -20 23 0
-3 -7 -17 0
9 -17 -21 0
9 -14 -25 0
-9 12 21 0
3 13 18 0
-16 -20 25 0
-2 -3 24 0
1 -17 23 0
6 -17 22 0
9 -12 -23 0
1 4 -19 0
